clingo version 4.5.4
Reading from out.txt ...
Solving...
Answer: 1
author("How_to_Succeed_in_Business_Without_Really_Trying_(musical)","Jack_Weinstock") author("How_to_Succeed_in_Business_Without_Really_Trying_(musical)","Willie_Gilbert") author("How_to_Succeed_in_Business_Without_Really_Trying_(musical)","Abe_Burrows") basedOn("How_to_Succeed_in_Business_Without_Really_Trying_(musical)","How_to_Succeed_in_Business_Without_Really_Trying_(book)") lyrics("How_to_Succeed_in_Business_Without_Really_Trying_(musical)","Frank_Loesser") musicBy("How_to_Succeed_in_Business_Without_Really_Trying_(musical)","Frank_Loesser") activeYearsStartYear("Frank_Loesser","1936") birthYear("Abe_Burrows","1910") birthYear("Willie_Gilbert","1916") deathYear("Abe_Burrows","1985") deathYear("Jack_Weinstock","1969") deathYear("Willie_Gilbert","1980") genre("Frank_Loesser","Musical_theatre") presenter("Tony_Award_for_Best_Musical","American_Theatre_Wing") author("How_to_Succeed_in_Business_Without_Really_Trying_(musical)","How_to_Succeed_in_Business_Without_Really_Trying_(book)") author("How_to_Succeed_in_Business_Without_Really_Trying_(musical)","Frank_Loesser") author("Tony_Award_for_Best_Musical","American_Theatre_Wing")
Optimization: 0
OPTIMUM FOUND

Models       : 1     
  Optimum    : yes
Optimization : 0
Calls        : 1
Time         : 0.008s (Solving: 0.00s 1st Model: 0.00s Unsat: 0.00s)
CPU Time     : 0.000s
Threads      : 4        (Winner: 1)
